############################################################################################
#                                       SECTION: basic                                      
############################################################################################
 ecut 8.0
 nband 4
 occopt 7
 ngkpt 32 32 32
 kptopt 1
 nshiftk 1
 shiftk    0.0    0.0    0.0
 tolwfr 1e-16
 iscf -2
############################################################################################
#                                        SECTION: dev                                       
############################################################################################
 istwfk *1
############################################################################################
#                                       SECTION: files                                      
############################################################################################
 irdden 1
############################################################################################
#                                      SECTION: gstate                                      
############################################################################################
 tsmear 0.04
 ngfft 15 15 15
############################################################################################
#                                         STRUCTURE                                         
############################################################################################
 natom 1
 ntypat 1
 typat 1
 znucl 13
 xred    0.0000000000    0.0000000000    0.0000000000
 acell    1.0    1.0    1.0
 rprim
    0.0000000000    3.7500000000    3.7500000000
    3.7500000000    0.0000000000    3.7500000000
    3.7500000000    3.7500000000    0.0000000000


#<JSON>
#{
#    "pseudos": [
#        {
#            "basename": "Al.oncvpsp",
#            "type": "NcAbinitPseudo",
#            "symbol": "Al",
#            "Z": 13,
#            "Z_val": 3.0,
#            "l_max": 2,
#            "md5": "aafe203b8a834c5bfd9a15918523bc29",
#            "filepath": "/Users/gmatteo/git_repos/abipy/abipy/data/pseudos/Al.oncvpsp",
#            "@module": "pymatgen.io.abinit.pseudos",
#            "@class": "NcAbinitPseudo"
#        }
#    ]
#}
#</JSON>
