##############################################
####                SECTION: basic               
##############################################
 ecut 25.0
 nband 210
 ngkpt 8 8 8
 kptopt 1
 nshiftk 1
 shiftk    0.0    0.0    0.0
 tolwfr 1e-16
 iscf -2
##############################################
####                SECTION: files               
##############################################
 irdden 1
##############################################
####               SECTION: gstate               
##############################################
 nbdbuf 10
 ngfft 24 24 24
##############################################
####                SECTION: paral               
##############################################
 paral_kgb 1
 npimage 1
 npkpt 2
 npspinor 1
 npfft 1
 npband 1
 bandpp 1
##############################################
####                  STRUCTURE                  
##############################################
 natom 2
 ntypat 1
 typat 1 1
 znucl 6
 xred
    0.0000000000    0.0000000000    0.0000000000
    0.2500000000    0.2500000000    0.2500000000
 acell    1.0    1.0    1.0
 rprim
    0.0000000000    3.3517340250    3.3517340250
    3.3517340250    0.0000000000    3.3517340250
    3.3517340250    3.3517340250    0.0000000000


#<JSON>
#{
#    "pseudos": [
#        {
#            "basename": "6c.pspnc",
#            "type": "NcAbinitPseudo",
#            "symbol": "C",
#            "Z": 6,
#            "Z_val": 4.0,
#            "l_max": 1,
#            "md5": "6bf6ca08f4034aa8d90b0c6757b7adb1",
#            "filepath": "/Users/gmatteo/git_repos/abitutorials/abitutorials/sigeph/6c.pspnc",
#            "@module": "pymatgen.io.abinit.pseudos",
#            "@class": "NcAbinitPseudo"
#        }
#    ]
#}
#</JSON>
