############################################################################################
#                                       SECTION: basic                                      
############################################################################################
 ecut 20.0
 nband 4
 ngkpt 8 8 8
 kptopt 3
 nshiftk 1
 shiftk    0.0    0.0    0.0
 tolvrs 1e-06
############################################################################################
#                                        SECTION: dev                                       
############################################################################################
 istwfk *1
############################################################################################
#                                       SECTION: dfpt                                       
############################################################################################
 rfphon 1
 rfatpol 1 1
 rfdir 1 0 0
############################################################################################
#                                       SECTION: files                                      
############################################################################################
 irdwfk 1
############################################################################################
#                                      SECTION: gstate                                      
############################################################################################
 nqpt 1
 qpt    0.2500000000    0.2500000000    0.0000000000
############################################################################################
#                                       SECTION: paral                                      
############################################################################################
 nppert 1
 npkpt 2
############################################################################################
#                                         STRUCTURE                                         
############################################################################################
 natom 2
 ntypat 1
 typat 1 1
 znucl 6
 xred
    0.0000000000    0.0000000000    0.0000000000
    0.2500000000    0.2500000000    0.2500000000
 acell    1.0    1.0    1.0
 rprim
    0.0000000000    3.3517340250    3.3517340250
    3.3517340250    0.0000000000    3.3517340250
    3.3517340250    3.3517340250    0.0000000000


#<JSON>
#{
#    "pseudos": [
#        {
#            "basename": "6c.pspnc",
#            "type": "NcAbinitPseudo",
#            "symbol": "C",
#            "Z": 6,
#            "Z_val": 4.0,
#            "l_max": 1,
#            "md5": "6bf6ca08f4034aa8d90b0c6757b7adb1",
#            "filepath": "/Users/gmatteo/git_repos/abitutorials/abitutorials/sigeph/6c.pspnc",
#            "@module": "pymatgen.io.abinit.pseudos",
#            "@class": "NcAbinitPseudo"
#        }
#    ]
#}
#</JSON>
