############################################################################################
#                                       SECTION: basic                                      
############################################################################################
 nband 4
 ecut 6
 ngkpt 4 4 4
 nshiftk 4
 shiftk
    0.0    0.0    0.5
    0.0    0.5    0.0
    0.5    0.0    0.0
    0.5    0.5    0.5
 ixc 1
 nstep 25
 tolvrs 1e-10
############################################################################################
#                                      SECTION: gstate                                      
############################################################################################
 diemac 9.0
############################################################################################
#                                         STRUCTURE                                         
############################################################################################
 natom 2
 ntypat 2
 typat 1 2
 znucl 13 33
 xred
    0.0000000000    0.0000000000    0.0000000000
    0.2500000000    0.2500000000    0.2500000000
 acell    1.0    1.0    1.0
 rprim
    0.0000000000    5.3050000000    5.3050000000
    5.3050000000    0.0000000000    5.3050000000
    5.3050000000    5.3050000000    0.0000000000


#<JSON>
#{
#    "pseudos": [
#        {
#            "basename": "13al.981214.fhi",
#            "type": "NcAbinitPseudo",
#            "symbol": "Al",
#            "Z": 13,
#            "Z_val": 3.0,
#            "l_max": 2,
#            "md5": "45177dc68580e70ffd690f1e65e9b174",
#            "filepath": "/Users/gmatteo/git_repos/abipy/abipy/data/pseudos/13al.981214.fhi",
#            "@module": "pymatgen.io.abinit.pseudos",
#            "@class": "NcAbinitPseudo"
#        },
#        {
#            "basename": "33as.pspnc",
#            "type": "NcAbinitPseudo",
#            "symbol": "As",
#            "Z": 33,
#            "Z_val": 5.0,
#            "l_max": 1,
#            "md5": "56f075499613b4e8e69cc77bd15edc6d",
#            "filepath": "/Users/gmatteo/git_repos/abipy/abipy/data/pseudos/33as.pspnc",
#            "@module": "pymatgen.io.abinit.pseudos",
#            "@class": "NcAbinitPseudo"
#        }
#    ]
#}
#</JSON>
