############################################################################################
#                                       SECTION: basic                                      
############################################################################################
 nband 8
 ecut 6.0
 ngkpt 8 8 8
 nshiftk 1
 shiftk    0.0    0.0    0.5
 nstep 40
 kptopt 2
 tolvrs 1e-12
############################################################################################
#                                       SECTION: dfpt                                       
############################################################################################
 rfphon 1
 rfatpol 1 1
 rfdir 0 0 1
############################################################################################
#                                       SECTION: files                                      
############################################################################################
 irdwfk 1
 irdddk 1
############################################################################################
#                                      SECTION: gstate                                      
############################################################################################
 diemac 9.0
 nqpt 1
 qpt    0.0000000000    0.0000000000    0.0000000000
############################################################################################
#                                       SECTION: paral                                      
############################################################################################
 paral_kgb 0
 nppert 1
 npkpt 2
############################################################################################
#                                        SECTION: rlx                                       
############################################################################################
 ecutsm 0.5
############################################################################################
#                                         STRUCTURE                                         
############################################################################################
 natom 4
 ntypat 2
 typat
 1 1 2
 2
 znucl 13 33
 xred
    0.3333333333    0.6666666667    0.0000000000
    0.6666666667    0.3333333333    0.5000000000
    0.3333333333    0.6666666667    0.3760858837
    0.6666666667    0.3333333333    0.8760858837
 acell    1.0    1.0    1.0
 rprim
    6.5289350475    3.7694824072    0.0000000000
   -6.5289350475    3.7694824072    0.0000000000
    0.0000000000    0.0000000000   12.2777953740


#<JSON>
#{
#    "pseudos": [
#        {
#            "basename": "13al.pspnc",
#            "type": "NcAbinitPseudo",
#            "symbol": "Al",
#            "Z": 13,
#            "Z_val": 3.0,
#            "l_max": 2,
#            "md5": "a932766b26e386f2164c640715a809d6",
#            "filepath": "/Users/gmatteo/git_repos/abipy/abipy/data/pseudos/13al.pspnc",
#            "@module": "pymatgen.io.abinit.pseudos",
#            "@class": "NcAbinitPseudo"
#        },
#        {
#            "basename": "33as.pspnc",
#            "type": "NcAbinitPseudo",
#            "symbol": "As",
#            "Z": 33,
#            "Z_val": 5.0,
#            "l_max": 1,
#            "md5": "56f075499613b4e8e69cc77bd15edc6d",
#            "filepath": "/Users/gmatteo/git_repos/abipy/abipy/data/pseudos/33as.pspnc",
#            "@module": "pymatgen.io.abinit.pseudos",
#            "@class": "NcAbinitPseudo"
#        }
#    ]
#}
#</JSON>
