##############################################
####                SECTION: basic               
##############################################
 ecut 25.0
 nband 150
 tolvrs 1e-08
 ngkpt 8 8 8
 kptopt 1
 nshiftk 1
 shiftk    0.0    0.0    0.0
##############################################
####                 SECTION: eph                
##############################################
 eph_task 4
 ddb_ngqpt 4 4 4
 tmesh 0 200 5
 ph_ndivsm 10
 ph_nqpath 12
 ph_qpath
    0.0    0.0    0.0
    0.5    0.0    0.5
    0.5    0.25    0.75
    0.375    0.375    0.75
    0.0    0.0    0.0
    0.5    0.5    0.5
    0.625    0.25    0.625
    0.5    0.25    0.75
    0.5    0.5    0.5
    0.375    0.375    0.75
    0.625    0.25    0.625
    0.5    0.0    0.5
 ph_intmeth 2
 ph_wstep 0.0001 eV
 ph_ngqpt 16 16 16
 ph_qshift 0 0 0
 ph_nqshift 1
 eph_ngqpt_fine 4 4 4
##############################################
####                SECTION: files               
##############################################
 irdwfk 1
##############################################
####               SECTION: gstate               
##############################################
 optdriver 7
##############################################
####                 SECTION: gw                 
##############################################
 nkptgw 1
 kptgw    0.0000000000    0.0000000000    0.0000000000
 bdgw 1 8
 zcut 0.2 eV
 nfreqsp 301
##############################################
####                SECTION: paral               
##############################################
 paral_kgb 0
##############################################
####                  STRUCTURE                  
##############################################
 natom 2
 ntypat 1
 typat 1 1
 znucl 6
 xred
    0.0000000000    0.0000000000    0.0000000000
    0.2500000000    0.2500000000    0.2500000000
 acell    1.0    1.0    1.0
 rprim
    0.0000000000    3.3517340250    3.3517340250
    3.3517340250    0.0000000000    3.3517340250
    3.3517340250    3.3517340250    0.0000000000


#<JSON>
#{
#    "pseudos": [
#        {
#            "basename": "6c.pspnc",
#            "type": "NcAbinitPseudo",
#            "symbol": "C",
#            "Z": 6,
#            "Z_val": 4.0,
#            "l_max": 1,
#            "md5": "6bf6ca08f4034aa8d90b0c6757b7adb1",
#            "filepath": "/Users/gmatteo/git_repos/abitutorials/abitutorials/sigeph/6c.pspnc",
#            "@module": "pymatgen.io.abinit.pseudos",
#            "@class": "NcAbinitPseudo"
#        }
#    ]
#}
#</JSON>
