############################################################################################
#                                       SECTION: basic                                      
############################################################################################
 ecut 8.0
 nband 4
 occopt 7
 tolvrs 1e-07
 ngkpt 16 16 16
 kptopt 1
 nshiftk 1
 shiftk    0.0    0.0    0.0
############################################################################################
#                                        SECTION: dev                                       
############################################################################################
 istwfk *1
############################################################################################
#                                        SECTION: eph                                       
############################################################################################
 eph_task 1
 ddb_ngqpt 4 4 4
 eph_fsewin 0.8 eV
 eph_intmeth 2
 eph_ngqpt_fine 8 8 8
 eph_mustar 0.12
 ph_ndivsm 10
 ph_nqpath 12
 ph_qpath
    0.0    0.0    0.0
    0.5    0.0    0.5
    0.5    0.25    0.75
    0.375    0.375    0.75
    0.0    0.0    0.0
    0.5    0.5    0.5
    0.625    0.25    0.625
    0.5    0.25    0.75
    0.5    0.5    0.5
    0.375    0.375    0.75
    0.625    0.25    0.625
    0.5    0.0    0.5
 ph_intmeth 2
 ph_wstep 0.0001 eV
 ph_ngqpt 24 24 24
 ph_qshift 0 0 0
 ph_nqshift 1
############################################################################################
#                                       SECTION: files                                      
############################################################################################
 prtwf -1
 prtden 0
 irdwfk 1
############################################################################################
#                                      SECTION: gstate                                      
############################################################################################
 tsmear 0.04
 optdriver 7
############################################################################################
#                                         STRUCTURE                                         
############################################################################################
 natom 1
 ntypat 1
 typat 1
 znucl 13
 xred    0.0000000000    0.0000000000    0.0000000000
 acell    1.0    1.0    1.0
 rprim
    0.0000000000    3.7500000000    3.7500000000
    3.7500000000    0.0000000000    3.7500000000
    3.7500000000    3.7500000000    0.0000000000


#<JSON>
#{
#    "pseudos": [
#        {
#            "basename": "Al.oncvpsp",
#            "type": "NcAbinitPseudo",
#            "symbol": "Al",
#            "Z": 13,
#            "Z_val": 3.0,
#            "l_max": 2,
#            "md5": "aafe203b8a834c5bfd9a15918523bc29",
#            "filepath": "/Users/gmatteo/git_repos/abipy/abipy/data/pseudos/Al.oncvpsp",
#            "@module": "pymatgen.io.abinit.pseudos",
#            "@class": "NcAbinitPseudo"
#        }
#    ]
#}
#</JSON>
