############################################################################################
#                                      SECTION: varbas                                      
############################################################################################
 ecut 10
 nband 1
 toldfe 1e-06
 ngkpt 1 1 1
 kptopt 1
 nshiftk 1
 shiftk 0 0 0
############################################################################################
#                                      SECTION: vardev                                      
############################################################################################
 iomode 3
############################################################################################
#                                      SECTION: varfil                                      
############################################################################################
 prtwf -1
############################################################################################
#                                       SECTION: vargs                                      
############################################################################################
 diemac 2.0
############################################################################################
#                                         STRUCTURE                                         
############################################################################################
 natom 2
 ntypat 1
 typat 1 1
 znucl 1
 xred
   -0.0552500000    0.0000000000    0.0000000000
    0.0552500000    0.0000000000    0.0000000000
 acell    1.0    1.0    1.0
 rprim
   10.0000000000    0.0000000000    0.0000000000
    0.0000000000   10.0000000000    0.0000000000
    0.0000000000    0.0000000000   10.0000000000


#<JSON>
#{
#    "pseudos": [
#        {
#            "basename": "01h.pspgth",
#            "type": "NcAbinitPseudo",
#            "symbol": "H",
#            "Z": 1,
#            "Z_val": 1.0,
#            "l_max": 0,
#            "md5": "ead639d5cf933040e2201f421798e9b7",
#            "filepath": "/Users/gmatteo/git_repos/abipy/abipy/data/pseudos/01h.pspgth",
#            "@module": "pymatgen.io.abinit.pseudos",
#            "@class": "NcAbinitPseudo"
#        }
#    ]
#}
#</JSON>
