############################################################################################
#                                      SECTION: varbas                                      
############################################################################################
# <Energy CUToff>
 ecut 6
# <Number of Grid points for K PoinTs generation>
 ngkpt 2 2 2
# <KPoinTs OPTion>
 kptopt 1
# <Number of SHIFTs for K point grids>
 nshiftk 4
# <SHIFT for K points>
 shiftk
    0.5    0.5    0.5
    0.5    0.0    0.0
    0.0    0.5    0.0
    0.0    0.0    0.5
# <TOLerance on the potential V(r) ReSidual>
 tolvrs 1e-06
# <Number of BANDs>
 nband 4
############################################################################################
#                                      SECTION: vardev                                      
############################################################################################
# <Integer for choice of STorage of WaveFunction at each k point>
 istwfk *1
############################################################################################
#                                      SECTION: varpar                                      
############################################################################################
# <activate PARALelization over K-point, G-vectors and Bands>
 paral_kgb 0
# <GW PARAllelization level>
 gwpara 2
############################################################################################
#                                         STRUCTURE                                         
############################################################################################
# <Number of ATOMs>
 natom 2
# <Number of TYPEs of atoms>
 ntypat 1
# <TYPE of atoms>
 typat 1 1
# <charge -Z- of the NUCLeus>
 znucl 14
# <vectors (X) of atom positions in REDuced coordinates>
 xred
    0.0000000000    0.0000000000    0.0000000000
    0.2500000000    0.2500000000    0.2500000000
# <CELL lattice vector scaling>
 acell    1.0    1.0    1.0
# <Real space PRIMitive translations>
 rprim
    6.3285005272    0.0000000000    3.6537614829
    2.1095001757    5.9665675167    3.6537614829
    0.0000000000    0.0000000000    7.3075229659


#<JSON>
#{
#    "pseudos": [
#        {
#            "basename": "14si.pspnc",
#            "type": "NcAbinitPseudo",
#            "symbol": "Si",
#            "Z": 14,
#            "Z_val": 4.0,
#            "l_max": 2,
#            "md5": "3916b143991b1cfa1542b130be320e5e",
#            "filepath": "/Users/gmatteo/git_repos/abipy/abipy/data/pseudos/14si.pspnc",
#            "@module": "pymatgen.io.abinit.pseudos",
#            "@class": "NcAbinitPseudo"
#        }
#    ]
#}
#</JSON>
