############################################################################################
#                                      SECTION: varbas                                      
############################################################################################
 ecut 8
 tolvrs 1e-09
 ngkpt 4 4 4
 kptopt 1
 nshiftk 4
 shiftk
    0.5    0.5    0.5
    0.5    0.0    0.0
    0.0    0.5    0.0
    0.0    0.0    0.5
############################################################################################
#                                      SECTION: vardev                                      
############################################################################################
 iomode 3
############################################################################################
#                                       SECTION: vargs                                      
############################################################################################
 diemac 12
############################################################################################
#                                      SECTION: varrlx                                      
############################################################################################
 optcell 1
 ionmov 3
 ntime 10
 dilatmx 1.05
 ecutsm 0.5
############################################################################################
#                                         STRUCTURE                                         
############################################################################################
 natom 2
 ntypat 1
 typat 1 1
 znucl 14
 xred
    0.0000000000    0.0000000000    0.0000000000
    0.2500000000    0.2500000000    0.2500000000
 acell    1.0    1.0    1.0
 rprim
    6.3285005272    0.0000000000    3.6537614829
    2.1095001757    5.9665675167    3.6537614829
    0.0000000000    0.0000000000    7.3075229659


#<JSON>
#{
#    "pseudos": [
#        {
#            "basename": "14si.pspnc",
#            "type": "NcAbinitPseudo",
#            "symbol": "Si",
#            "Z": 14,
#            "Z_val": 4.0,
#            "l_max": 2,
#            "md5": "3916b143991b1cfa1542b130be320e5e",
#            "filepath": "/Users/gmatteo/git_repos/abipy/abipy/data/pseudos/14si.pspnc",
#            "@module": "pymatgen.io.abinit.pseudos",
#            "@class": "NcAbinitPseudo"
#        }
#    ]
#}
#</JSON>
